beta-NiPS  penta monolayer, from SI of arXiv:2210.08267 (Dabsamut et al. 2022)
1.0000000000
     5.4506626129      0.0000000000      0.0000000000
     0.0000000000      5.4131979942      0.0000000000
     0.0000000000      0.0000000000     20.0000000000
   P Ni S
   4 4 4
Direct
  0.393300503  0.119151324  0.513581038
  0.893301070  0.361021221  0.513581693
  0.393330991  0.119284220  0.627887487
  0.893327773  0.361152202  0.627888143
  0.022518296  0.985711753  0.497516602
  0.522524476  0.494440585  0.497509837
  0.022542441  0.985858738  0.643965960
  0.522569895  0.494580656  0.643977821
  0.151403740  0.615112722  0.474170238
  0.651414335  0.865029156  0.474198937
  0.151452243  0.615271389  0.667269170
  0.651431501  0.865185678  0.667289495
