alpha-NiPS  penta monolayer, from SI of arXiv:2210.08267 (Dabsamut et al. 2022)
1.0000000000
     5.4334778786      0.0000000000      0.0000000000
     0.0000000000      5.3766608238      0.0000000000
     0.0000000000      0.0000000000     20.0000000000
   P Ni S
   4 4 4
Direct
  0.962273777  0.360852301  0.625883460
  0.462258756  0.114597820  0.625882387
  0.410592049  0.114621565  0.515585184
  0.910589755  0.360861778  0.515587270
  0.334184855  0.492158771  0.643614709
  0.834163964  0.983303130  0.643631577
  0.038697906  0.983296335  0.497858346
  0.538726151  0.492183775  0.497855455
  0.205185726  0.863711536  0.670297384
  0.705194712  0.611739635  0.670299411
  0.167665824  0.611748457  0.471174270
  0.667657554  0.863735914  0.471166432
