Penta-BCP
1.00000000000000
3.7181999683000000  0.0000000000000000   0.0000000000000000
0.0000000000000000  3.6875998974000002   0.0000000000000000
0.0000000000000000  0.0000000000000000  21.0799007415999995
C       P    B
2       2    2
Direct
0.2275573220106466 0.0084910296134737 0.4927373522990095
0.7724426610073394 0.5084910294782858 0.5072626482250584
0.4615985569580090 0.6860329068473163 0.4389086878008186
0.5384014259841834 0.1860329069810689 0.5610913115137066
0.1207179431704049 0.3611560725044214 0.4737279732646300
0.8792820398694303 0.8611560725754330 0.5262720268967769
